(declare-const x Bool)
(declare-const y Bool) 
(declare-const z Bool)
(declare-const t Bool)
(declare-const a Bool)
(declare-const b Bool)
(assert (and
   (or (not(and x y)) z t)
   (or (and a b) (and(and(not a) t) x) t)
   (or (not(and y a)) t z)
   (or (and x (and y z) (not t) (not z)) (not a) (not b))
   (or x y z)
   (or (not t) (and (not a) b) x)
   )
)
(check-sat)
(get-model)
(exit)